RT is False
Default write of storage_offers_DA.csv just to have a file (but constraint should be inactive)
Reading model...
...model read.
creating competitive generators file...
...competitive generators recorded.
Loading data...
.. day-ahead data with real-time VRE data read.
Compiling instance...
...instance created.
Creating Offer Mitigation (model will solve as dispatch if TRUE)...
...storage offer mitigation file created
Converting model to MPEC...
...converted
NOTE: initial MIP solve with only storage competitive to get feasible solution
Solving...

Welcome to IBM(R) ILOG(R) CPLEX(R) Interactive Optimizer 12.9.0.0
  with Simplex, Mixed Integer & Barrier Optimizers
5725-A06 5725-A29 5724-Y48 5724-Y49 5724-Y54 5724-Y55 5655-Y21
Copyright IBM Corp. 1988, 2019.  All Rights Reserved.

Type 'help' for a list of available commands.
Type 'help' followed by a command name for more
information on commands.

CPLEX> Logfile 'cplex.log' closed.
Logfile 'C:\Users\llavin\Desktop\test826\logs\tmp6cfz2u8n.cplex.log' open.
CPLEX> New value for parallel optimization mode: -1
CPLEX> New value for mixed integer optimality gap tolerance: 0.01
CPLEX> New value for emphasis for MIP optimization: 1
CPLEX> New value for integrality tolerance: 1e-12
CPLEX> New value for deterministic time limit in ticks: 50000
CPLEX> Problem 'C:\Users\llavin\Desktop\test826\logs\tmp7cuh18yv.pyomo.lp' read.
Read time = 0.25 sec. (14.73 ticks)
CPLEX> Problem name         : C:\Users\llavin\Desktop\test826\logs\tmp7cuh18yv.pyomo.lp
Objective sense      : Maximize
Variables            :   53805  [Nneg: 1,  Box: 22000,  Free: 4464,
                                 Binary: 27340]
Objective nonzeros   :    9029
Linear constraints   :  123205  [Less: 41346,  Greater: 59096,  Equal: 22763]
  Nonzeros           :  291753
  RHS nonzeros       :   67491

Variables            : Min LB: -5000.000        Max UB: 1000000.       
Objective nonzeros   : Min   : 0.07500000       Max   : 2500.000       
Linear constraints   :
  Nonzeros           : Min   : 0.07500000       Max   : 1000000.       
  RHS nonzeros       : Min   : 0.07500000       Max   : 1000000.       
CPLEX> CPXPARAM_Parallel                                -1
CPXPARAM_Emphasis_MIP                            1
CPXPARAM_DetTimeLimit                            50000
CPXPARAM_MIP_Tolerances_MIPGap                   0.01
CPXPARAM_MIP_Tolerances_Integrality              9.9999999999999998e-13
Tried aggregator 3 times.
MIP Presolve eliminated 88694 rows and 19018 columns.
MIP Presolve added 3377 rows and 0 columns.
MIP Presolve modified 24809 coefficients.
Aggregator did 12977 substitutions.
Reduced MIP has 24911 rows, 21254 columns, and 71039 nonzeros.
Reduced MIP has 8402 binaries, 0 generals, 0 SOSs, and 0 indicators.
Presolve time = 0.28 sec. (171.75 ticks)
Probing fixed 397 vars, tightened 3859 bounds.
Probing time = 0.08 sec. (18.42 ticks)
Tried aggregator 2 times.
MIP Presolve eliminated 898 rows and 798 columns.
MIP Presolve modified 3034 coefficients.
Aggregator did 35 substitutions.
Reduced MIP has 23978 rows, 20421 columns, and 68340 nonzeros.
Reduced MIP has 8003 binaries, 0 generals, 0 SOSs, and 0 indicators.
Presolve time = 0.11 sec. (87.09 ticks)
Probing fixed 0 vars, tightened 192 bounds.
Probing time = 0.14 sec. (22.55 ticks)
Clique table members: 44978.
MIP emphasis: integer feasibility.
MIP search method: dynamic search.
Parallel mode: opportunistic, using up to 32 threads.
Root relaxation solution time = 0.48 sec. (709.72 ticks)

        Nodes                                         Cuts/
   Node  Left     Objective  IInf  Best Integer    Best Bound    ItCnt     Gap

      0     0      397.2747   174                    397.2747     5675         
      0     0      397.2747     3                     Cuts: 8     5680         
      0     0      397.2747     2                   Covers: 1     5681         
      0    21    infeasible                          285.2680     5837         
Elapsed time = 3.24 sec. (1828.52 ticks, tree = 0.02 MB, solutions = 0)
    492   205   -37333.1982    23                    276.9307    11947         
    882   451    -4982.3967    34                    276.9307    28139         
   1381   724   -11961.8253    76                    276.9307    40866         
   1879   849    infeasible                          276.9307    47840         
   2302  1296      258.3351     3                    276.9307    79265         
   2616  1185      161.4591     3                    276.9307    71283         
   2856  1470      253.4204     3                    276.9307    97475         
   3017  1471    infeasible                          276.9307    97477         
   3152  1559      161.4591     3                    276.9307   103804         
   3666  1677      253.4204   178                    276.9307   124081         
Elapsed time = 15.45 sec. (4936.14 ticks, tree = 45.35 MB, solutions = 1)
*  3913+  524                          184.9694      276.9307            49.72%
   4497  1815    infeasible            184.9694      276.9307   127207   49.72%
   5219   326        cutoff            245.2144      276.9307   129868   12.93%
*  5321   481      integral     0      276.9307      276.9307   129706    0.00%
   5641   277      270.5408     2      276.9307      276.9307   130369    0.00%

Clique cuts applied:  1
Cover cuts applied:  10
Implied bound cuts applied:  13
Flow cuts applied:  24
Mixed integer rounding cuts applied:  1
Gomory fractional cuts applied:  3

Root node processing (before b&c):
  Real time             =    2.42 sec. (1825.05 ticks)
Parallel b&c, 32 threads:
  Real time             =   19.73 sec. (6799.09 ticks)
  Sync time (average)   =    0.62 sec.
  Wait time (average)   =    0.00 sec.
                          ------------
Total (root+branch&cut) =   22.16 sec. (8624.14 ticks)

Solution pool: 4 solutions saved.

MIP - Integer optimal solution:  Objective =  2.7693072233e+02
Solution time =   22.17 sec.  Iterations = 134334  Nodes = 5660
Deterministic time = 8624.29 ticks  (388.97 ticks/sec)

CPLEX> Incumbent solution written to file 'C:\Users\llavin\Desktop\test826\logs\tmpwzlwmqo0.cplex.sol'.
CPLEX> NOTE: no warmstart specified for MIP iteration, default behavior is true
NOTE: resolving with all competitive generators using storage-only solution to warmstart
Solving...

Welcome to IBM(R) ILOG(R) CPLEX(R) Interactive Optimizer 12.9.0.0
  with Simplex, Mixed Integer & Barrier Optimizers
5725-A06 5725-A29 5724-Y48 5724-Y49 5724-Y54 5724-Y55 5655-Y21
Copyright IBM Corp. 1988, 2019.  All Rights Reserved.

Type 'help' for a list of available commands.
Type 'help' followed by a command name for more
information on commands.

CPLEX> Logfile 'cplex.log' closed.
Logfile 'C:\Users\llavin\Desktop\test826\logs\tmpfnwsx7cb.cplex.log' open.
CPLEX> New value for parallel optimization mode: -1
CPLEX> New value for mixed integer optimality gap tolerance: 0.01
CPLEX> New value for emphasis for MIP optimization: 1
CPLEX> New value for integrality tolerance: 1e-12
CPLEX> New value for deterministic time limit in ticks: 50000
CPLEX> Problem 'C:\Users\llavin\Desktop\test826\logs\tmpc0_7f1b6.pyomo.lp' read.
Read time = 0.25 sec. (14.75 ticks)
CPLEX> MIP start file 'C:\Users\llavin\Desktop\test826\logs\tmpv8m86l32.cplex.mst' read.
CPLEX> Problem name         : C:\Users\llavin\Desktop\test826\logs\tmpc0_7f1b6.pyomo.lp
Objective sense      : Maximize
Variables            :   54525  [Nneg: 1,  Box: 22720,  Free: 4464,
                                 Binary: 27340]
Objective nonzeros   :    9725
Linear constraints   :  123205  [Less: 41346,  Greater: 59096,  Equal: 22763]
  Nonzeros           :  291753
  RHS nonzeros       :   67491

Variables            : Min LB: -5000.000        Max UB: 1000000.       
Objective nonzeros   : Min   : 0.07500000       Max   : 2500.000       
Linear constraints   :
  Nonzeros           : Min   : 0.07500000       Max   : 1000000.       
  RHS nonzeros       : Min   : 0.07500000       Max   : 1000000.       
CPLEX> CPXPARAM_Parallel                                -1
CPXPARAM_Emphasis_MIP                            1
CPXPARAM_DetTimeLimit                            50000
CPXPARAM_MIP_Tolerances_MIPGap                   0.01
CPXPARAM_MIP_Tolerances_Integrality              9.9999999999999998e-13
Warning:  No solution found from 1 MIP starts.
Retaining values of one MIP start for possible repair.
Tried aggregator 3 times.
MIP Presolve eliminated 88694 rows and 19738 columns.
MIP Presolve added 3377 rows and 0 columns.
MIP Presolve modified 24809 coefficients.
Aggregator did 12977 substitutions.
Reduced MIP has 24911 rows, 21254 columns, and 71039 nonzeros.
Reduced MIP has 8402 binaries, 0 generals, 0 SOSs, and 0 indicators.
Presolve time = 0.28 sec. (172.12 ticks)
Probing fixed 397 vars, tightened 3859 bounds.
Probing time = 0.06 sec. (18.42 ticks)
Tried aggregator 2 times.
MIP Presolve eliminated 898 rows and 798 columns.
MIP Presolve modified 3034 coefficients.
Aggregator did 35 substitutions.
Reduced MIP has 23978 rows, 20421 columns, and 68340 nonzeros.
Reduced MIP has 8003 binaries, 0 generals, 0 SOSs, and 0 indicators.
Presolve time = 0.11 sec. (87.09 ticks)
Probing fixed 0 vars, tightened 192 bounds.
Probing time = 0.14 sec. (22.55 ticks)
Clique table members: 44978.
MIP emphasis: integer feasibility.
MIP search method: dynamic search.
Parallel mode: opportunistic, using up to 32 threads.
Root relaxation solution time = 0.53 sec. (738.92 ticks)

        Nodes                                         Cuts/
   Node  Left     Objective  IInf  Best Integer    Best Bound    ItCnt     Gap

      0     0    58212.2713   233                  58212.2713     6123         
      0     0    58146.3745    90                    Cuts: 86     6216         
      0     0    58094.1544    88                    Cuts: 71     6287         
      0     0    57874.7507   101                    Cuts: 54     6366         
Repair heuristic found nothing.
      0    24    52888.0857    65                    Cuts: 16     6792         
Elapsed time = 4.25 sec. (1909.21 ticks, tree = 0.21 MB, solutions = 0)
    610   267    56890.9217    62                  57713.3504     9542         
   1169   855    51455.9528    25                  57713.3504    17472         
*  1703+  934                        54836.5381    57713.3504             5.25%
   2367   914        cutoff          54836.5381    57713.3504    35737    5.25%
   3237  1148    56082.7124    32    54836.5381    57577.3523    40144    5.00%
   4125  1744        cutoff          54836.5381    57577.3523    47929    5.00%
   5031  2437        cutoff          54836.5381    57577.3523    55667    5.00%
   6028  2089    55849.8084    35    55666.2615    57577.3523    60239    3.43%
   7095  2403    56125.6136    32    55666.2615    57577.3523    63753    3.43%
   8499  4297        cutoff          55666.2615    57577.3523    87841    3.43%
Elapsed time = 21.33 sec. (6304.41 ticks, tree = 50.38 MB, solutions = 3)
  10658  1388    56346.3336    50    55666.2615    57346.3755   106300    3.02%
  13643  2509    56596.5815    65    55666.2615    57346.3755   119488    3.02%
  18341  3347    55806.2587    81    55666.2615    57346.3755   131548    3.02%
  22658  5783    56705.9829    29    55666.2615    57141.8663   167665    2.65%
  26836  8443    55755.3920    20    55666.2615    57088.2782   216363    2.55%
  28273 10688    55793.8670    17    55666.2615    57082.9084   268002    2.54%
  30700 10877    56103.9891    66    55666.2615    57082.9084   273559    2.54%
  35600 11335    56269.2456    61    55666.2615    56905.0534   284668    2.23%
  40201 11791    55758.0734    59    55666.2615    56851.2812   300000    2.13%
  44751 16412    55830.9154    40    55666.2615    56851.2812   412369    2.13%
Elapsed time = 65.92 sec. (15848.13 ticks, tree = 98.78 MB, solutions = 3)
  49588 15463    55820.2505    42    55666.2615    56803.5389   388705    2.04%
  54383 19464        cutoff          55666.2615    56697.8118   501027    1.85%
  58128 19615    55778.2687    41    55666.2615    56657.4760   507249    1.78%
  59338 21499    56457.3507    60    55666.2615    56657.4760   573978    1.78%
  60771 21442        cutoff          55666.2615    56649.7246   571056    1.77%
  64082 22329    56305.6767    48    55666.2615    56643.1757   603805    1.75%
  68177 22401    55816.1396    55    55666.2615    56643.1757   610173    1.75%
  70235 22559        cutoff          55666.2615    56643.1757   621514    1.75%
  70425 24653        cutoff          55666.2615    56556.7915   712512    1.60%
  72751   623        cutoff          55666.2615    56556.7915   727910    1.60%
Elapsed time = 98.31 sec. (26526.25 ticks, tree = 3.44 MB, solutions = 3)

Clique cuts applied:  5
Cover cuts applied:  14
Implied bound cuts applied:  14
Flow cuts applied:  96
Mixed integer rounding cuts applied:  28
Lift and project cuts applied:  48
Gomory fractional cuts applied:  18

Root node processing (before b&c):
  Real time             =    2.72 sec. (1876.32 ticks)
Parallel b&c, 32 threads:
  Real time             =   97.31 sec. (25390.60 ticks)
  Sync time (average)   =    3.43 sec.
  Wait time (average)   =    0.31 sec.
                          ------------
Total (root+branch&cut) =  100.03 sec. (27266.93 ticks)

Solution pool: 3 solutions saved.

MIP - Integer optimal, tolerance (0.01/1e-06):  Objective =  5.5666261535e+04
Current MIP best bound =  5.6221616751e+04 (gap = 555.355, 1.00%)
Solution time =  100.03 sec.  Iterations = 757620  Nodes = 74284 (1567)
Deterministic time = 27267.08 ticks  (272.58 ticks/sec)

CPLEX> Incumbent solution written to file 'C:\Users\llavin\Desktop\test826\logs\tmpok_6ys_k.cplex.sol'.
CPLEX> Exporting results... 
